SCIP version 5.0.0 [precision: 8 byte] [memory: block] [mode: optimized] [LP solver: NONE] [GitHash: 3bbd232]
Copyright (C) 2002-2017 Konrad-Zuse-Zentrum fuer Informationstechnik Berlin (ZIB)

External codes: 
  Readline EditLine w  GNU library for command line editing (gnu.org/s/readline)
  CppAD 20160000.1     Algorithmic Differentiation of C++ algorithms developed by B. Bell (www.coin-or.org/CppAD)
  ZLIB 1.2.5           General purpose compression library by J. Gailly and M. Adler (zlib.net)
  GMP 6.1.2            GNU Multiple Precision Arithmetic Library developed by T. Granlund (gmplib.org)

user parameter file <scip.set> not found - using default parameters

read problem <../../Split_data/output/spectf/5/0_sample_spectf.logreg>
============

File name	:	../../Split_data/output/spectf/5/0_sample_spectf.logreg
Problem name 	:	0_sample_spectf
Number of data	:	214
Number of var	:	44
The given data has linear independence

[dim=1] time: 0.011783
[dim=2] time: 0.020189
[dim=3] time: 0.030066
[dim=4] time: 0.037258
[dim=5] time: 0.044159
[dim=6] time: 0.050219
[dim=7] time: 0.056361
[dim=8] time: 0.062408
[dim=9] time: 0.068233
[dim=10] time: 0.075425
[dim=11] time: 0.083729
[dim=12] time: 0.089463
[dim=13] time: 0.09581
[dim=14] time: 0.10309
[dim=15] time: 0.108903
[dim=16] Time of forward = 0.114663sec.
AIC: 130.552
k: 15

[dim=44] time: 0.040463
[dim=43] time: 0.065784
[dim=42] time: 0.086028
[dim=41] time: 0.106768
[dim=40] time: 0.12399
[dim=39] time: 0.139528
[dim=38] time: 0.155734
[dim=37] time: 0.169909
[dim=36] time: 0.183995
[dim=35] time: 0.199969
[dim=34] time: 0.215632
[dim=33] time: 0.22749
[dim=32] time: 0.240312
[dim=31] time: 0.253138
[dim=30] time: 0.262176
[dim=29] time: 0.270648
[dim=28] time: 0.282956
[dim=27] time: 0.292431
[dim=26] time: 0.301818
[dim=25] time: 0.309102
[dim=24] time: 0.315451
[dim=23] time: 0.324082
[dim=22] time: 0.331677
[dim=21] time: 0.33691
[dim=20] time: 0.342612
[dim=19] Time of backward = 0.348017sec.
AIC: 136.65
k: 20
